15
-1 21 78 35 5 43 26 18 62 5 3 8 11 49 31
35 -1 37 71 30 68 64 29 68 28 31 67 83 36 21
62 34 -1 7 54 68 46 48 18 83 3 22 22 10 52
69 52 28 -1 71 43 35 60 75 35 52 33 92 69 43
31 5 26 32 -1 49 84 77 97 20 99 94 44 25 41
14 86 97 42 15 -1 2 92 25 12 62 28 70 80 6
16 37 60 56 29 4 -1 31 49 69 93 2 78 65 48
26 15 51 79 65 10 86 -1 3 40 53 36 79 48 72
94 37 22 55 64 23 20 96 -1 58 68 63 14 70 90
78 74 53 23 21 58 52 18 36 -1 92 50 81 72 96
65 96 43 63 37 15 8 30 71 42 -1 45 38 73 10
67 63 13 68 92 5 91 77 99 98 24 -1 38 70 79
26 49 73 18 93 9 73 82 92 69 22 50 -1 43 57
24 1 88 59 23 35 65 97 13 40 44 83 11 -1 60
79 88 91 65 6 98 41 3 45 21 2 21 57 84 -1
